c uprop, v00.0, 
c reading from data/prog190.c.cnf
c done reading: 0.003356
p cnf 102 389
-55 -58 0
-58 -61 0
55 58 61 0
55 61 -65 0
-55 -61 -65 0
-55 61 65 0
55 -61 65 0
58 -68 0
-68 -71 0
-58 68 71 0
-58 71 -74 0
58 -71 -74 0
58 71 74 0
-58 -71 74 0
68 -77 0
-68 77 0
-68 -79 0
68 79 0
77 -82 0
-77 82 0
-56 -77 0
56 77 0
-62 82 0
62 -82 0
-72 -82 0
72 82 0
-52 62 0
52 -62 0
-51 -62 0
51 62 0
-48 52 0
48 -52 0
-47 -52 0
47 52 0
-44 71 0
-44 55 0
44 -55 -71 0
-43 -55 -71 0
-43 55 71 0
43 55 -71 0
43 -55 71 0
40 -44 -61 0
-40 61 0
-40 44 0
-40 44 61 0
-39 -40 0
-39 -40 61 0
-39 -40 44 0
39 40 -61 0
39 40 -44 0
-39 44 61 0
37 -40 -71 0
-37 71 0
-37 40 0
-37 40 71 0
-36 -37 0
-36 -37 71 0
-36 -37 40 0
36 37 -71 0
36 37 -40 0
-36 40 71 0
34 -37 0
-34 37 0
39 -64 0
55 -64 0
-39 -55 64 0
-39 -55 -67 0
39 55 -67 0
-39 55 67 0
39 -55 67 0
-36 -61 73 0
-36 -64 73 0
-61 -64 73 0
36 61 -73 0
36 64 -73 0
61 64 -73 0
36 -73 -76 0
61 -73 -76 0
64 -73 -76 0
-36 73 76 0
-61 73 76 0
-64 73 76 0
-36 -61 -64 76 0
36 61 64 -76 0
-34 -71 0
-34 -73 0
-71 -73 0
-34 81 0
-71 81 0
-73 81 0
-34 -71 -73 81 0
34 71 73 -81 0
-55 -84 0
-61 -84 0
55 61 84 0
55 61 -85 0
-55 -61 -85 0
-55 61 85 0
55 -61 85 0
84 -86 0
-43 -86 0
43 -84 86 0
43 -84 -87 0
-43 84 -87 0
43 84 87 0
-43 -84 87 0
86 -88 0
-67 -88 0
67 -86 88 0
67 -86 -89 0
-67 86 -89 0
67 86 89 0
-67 -86 89 0
88 -90 0
-76 -90 0
76 -88 90 0
76 -88 -91 0
-76 88 -91 0
76 88 91 0
-76 -88 91 0
90 -92 0
-81 -92 0
81 -90 92 0
81 -90 -93 0
-81 90 -93 0
81 90 93 0
-81 -90 93 0
92 -94 0
-92 94 0
-92 -95 0
92 95 0
94 -96 0
-94 96 0
-59 -94 0
59 94 0
-66 96 0
66 -96 0
-69 -96 0
69 96 0
66 -75 0
-66 75 0
-66 -78 0
66 78 0
75 -80 0
-75 80 0
-75 -83 0
75 83 0
-57 80 0
57 -80 0
-63 -80 0
63 80 0
-53 -98 0
53 98 0
-49 -99 0
49 99 0
-45 -101 0
45 101 0
-41 -102 0
41 102 0
-31 -33 0
31 33 0
-29 -30 0
29 30 0
-26 -28 0
26 28 0
-25 99 0
25 -99 0
-24 -99 0
24 99 0
23 -98 -101 0
23 -25 -101 0
23 -25 -98 0
-23 98 101 0
-23 25 101 0
-23 25 98 0
-22 -23 101 0
-22 -23 98 0
-22 -23 25 0
22 23 -101 0
22 23 -98 0
22 23 -25 0
22 -25 -98 -101 0
-22 25 98 101 0
21 -99 -102 0
21 -23 -102 0
21 -23 -99 0
-21 99 102 0
-21 23 102 0
-21 23 99 0
-20 -21 102 0
-20 -21 99 0
-20 -21 23 0
20 21 -102 0
20 21 -99 0
20 21 -23 0
20 -23 -99 -102 0
-20 23 99 102 0
19 -33 -101 0
19 -21 -33 0
19 -21 -101 0
-19 33 101 0
-19 21 33 0
-19 21 101 0
-18 -19 33 0
-18 -19 101 0
-18 -19 21 0
18 19 -33 0
18 19 -101 0
18 19 -21 0
18 -21 -33 -101 0
-18 21 33 101 0
17 -30 -102 0
17 -19 -30 0
17 -19 -102 0
-17 30 102 0
-17 19 30 0
-17 19 102 0
-16 -17 30 0
-16 -17 102 0
-16 -17 19 0
16 17 -30 0
16 17 -102 0
16 17 -19 0
16 -19 -30 -102 0
-16 19 30 102 0
15 -28 -33 0
15 -17 -28 0
15 -17 -33 0
-15 28 33 0
-15 17 28 0
-15 17 33 0
-14 -15 28 0
-14 -15 33 0
-14 -15 17 0
14 15 -28 0
14 15 -33 0
14 15 -17 0
14 -17 -28 -33 0
-14 17 28 33 0
-13 30 0
-13 15 0
13 -15 -30 0
-15 -30 -54 0
15 30 -54 0
15 -30 54 0
-15 30 54 0
28 -60 0
13 -60 0
-13 -28 60 0
-13 -28 -70 0
13 28 -70 0
13 -28 70 0
-13 28 70 0
-12 20 0
12 -20 0
-11 -20 0
11 20 0
10 -18 -98 0
10 -12 -18 0
10 -12 -98 0
-10 18 98 0
-10 12 18 0
-10 12 98 0
-9 -10 18 0
-9 -10 98 0
-9 -10 12 0
9 10 -18 0
9 10 -98 0
9 10 -12 0
9 -12 -18 -98 0
-9 12 18 98 0
8 -16 -99 0
8 -10 -16 0
8 -10 -99 0
-8 16 99 0
-8 10 16 0
-8 10 99 0
-7 -8 16 0
-7 -8 99 0
-7 -8 10 0
7 8 -16 0
7 8 -99 0
7 8 -10 0
7 -10 -16 -99 0
-7 10 16 99 0
-14 97 -101 0
-8 -14 97 0
-8 97 -101 0
14 -97 101 0
8 14 -97 0
8 -97 101 0
-14 97 0
97 -101 0
-8 97 0
-8 -14 -101 0
-54 100 -102 0
-54 -97 100 0
-97 100 -102 0
54 -100 102 0
54 97 -100 0
97 -100 102 0
-54 100 0
100 -102 0
-97 100 0
-54 -97 -102 0
32 -33 -70 0
32 -70 -100 0
32 -33 -100 0
-32 33 70 0
-32 70 100 0
-32 33 100 0
32 -70 0
32 -33 0
32 -100 0
-33 -70 -100 0
27 -30 -60 0
27 -32 -60 0
27 -30 -32 0
-27 30 60 0
-27 32 60 0
-27 30 32 0
27 -60 0
27 -30 0
27 -32 0
-30 -32 -60 0
-27 -28 0
27 -28 0
-27 28 0
-6 -98 0
6 98 0
-5 -24 0
5 24 0
-4 -22 0
4 22 0
-3 -11 0
3 11 0
-2 -9 0
2 9 0
-1 -7 0
1 7 0
-50 55 0
-50 98 0
50 -55 -98 0
-55 -98 0
55 98 0
-24 46 -61 0
46 -50 -61 0
-24 46 -50 0
24 -46 61 0
-46 50 61 0
24 -46 50 0
-46 61 0
24 -46 0
-46 50 0
24 50 61 0
-22 42 -43 0
42 -43 -46 0
-22 42 -46 0
22 -42 43 0
-42 43 46 0
22 -42 46 0
-42 43 0
22 -42 0
-42 46 0
22 43 46 0
-11 38 -67 0
38 -42 -67 0
-11 38 -42 0
11 -38 67 0
-38 42 67 0
11 -38 42 0
38 -67 0
-11 38 0
38 -42 0
-11 -42 -67 0
-9 35 -76 0
35 -38 -76 0
-9 35 -38 0
9 -35 76 0
-35 38 76 0
9 -35 38 0
35 -76 0
-9 35 0
35 -38 0
-9 -38 -76 0
-7 -81 0
-35 -81 0
-7 -35 0
7 35 81 0
